1111111 AB
354 385 416 447 462 478 493 509 524 555 586 606 637 668 683 699 715 730 745 761 777 792 807 823 839 856 873 901 921 952 983 998 1013 1029 1045 1060 1075 1099 1122 1154
1111111 AB red
1184 1215 1270 1325 1380
1111111 BA
315 385 416 447 478 493 509 524 540 555 586 617 637 668 699 714 730 746 761 776 792 808 823 838 854 870 887 904 930 950 981 1012 1027 1042 1058 1074 1089 1104 1128 1151 1183
